56
2 82 70 
2 60 111 
3 24 119 83 
3 6 87 113 
3 63 31 7 
3 72 54 13 
2 66 94 
3 48 102 19 
3 14 97 93 
3 104 18 91 
2 51 78 
2 105 84 
2 32 114 
3 34 110 1 
2 20 36 
2 28 71 
2 74 40 
3 81 21 98 
3 43 41 42 
2 65 68 
2 106 33 
2 76 29 
2 3 89 
3 101 57 50 
2 16 39 
2 103 26 
2 120 30 
3 112 17 44 
2 49 67 
2 77 115 
2 73 27 
2 95 90 
2 92 86 
2 10 80 
2 56 107 
2 58 2 
2 46 35 
2 4 53 
2 108 22 
2 25 38 
2 64 109 
2 79 96 
3 88 69 85 
3 12 55 9 
2 117 52 
2 99 75 
2 59 116 
1 15 
1 118 
1 45 
1 37 
1 47 
2 8 23 
2 61 5 
1 62 
2 11 100 
